N = 16;
M = 36;
Edge_Start = [1, 1, 2, 2, 3, 3, 3, 4, 4, 5, 5, 6, 6, 7, 7, 7, 8, 8, 8, 9, 9, 9, 10, 10, 10, 11, 12, 12, 13, 13, 14, 14, 14, 15, 15, 16];
Edge_End = [2, 6, 1, 3, 2, 4, 8, 3, 5, 4, 10, 1, 7, 6, 8, 12, 3, 7, 9, 8, 10, 14, 5, 9, 11, 10, 7, 13, 12, 14, 9, 13, 15, 14, 16, 15];
L = [14, 7, 14, 12, 12, 6, 6, 6, 14, 14, 18, 7, 12, 12, 18, 10, 6, 18, 10, 10, 18, 16, 18, 18, 10, 10, 10, 2, 2, 15, 16, 15, 7, 7, 15, 15];
T = [15, 6, 15, 4, 4, 4, 9, 4, 11, 11, 18, 6, 9, 9, 14, 10, 9, 14, 1, 1, 13, 15, 18, 13, 9, 9, 10, 9, 9, 11, 15, 11, 8, 8, 12, 12];
Lower_Bound = [0, 15, 19, 23, 34, 6, 15, 28, 29, 42, 51, 25, 34, 44, 52, 64];
Upper_Bound = [0, 15, 19, 23, 34, 6, 15, 28, 29, 42, 51, 25, 34, 44, 52, 64];
Start = 1;
End = 16;
Time = 64;
